
List of user-set options:

                                    Name   Value                used
                           compl_inf_tol = 1                     yes
                         constr_viol_tol = 1                     yes
                            dual_inf_tol = 1000                  yes
                           linear_solver = ma97                  yes
                              ma86_small = 1e-30                  no
                                  ma86_u = 0.0001                 no
                              ma97_order = best                  yes
                              ma97_small = 1e-30                 yes
                            ma97_switch1 = at_start              yes
                            ma97_switch2 = od_hd_reuse           yes
                                  ma97_u = 1e-06                 yes
                               ma97_umax = 0.5                   yes
                                max_iter = 1000                  yes
                    max_refinement_steps = 20                    yes
                    min_refinement_steps = 5                     yes
                                 mu_init = 1e-06                 yes
           mu_superlinear_decrease_power = 1.25                  yes
                   nlp_scaling_min_value = 1e-08                 yes
                        option_file_name = Preset_Case_785_pf.opt  yes
                             output_file = ./tmp/Preset_Case_785_pf.output  yes
                      print_user_options = yes                   yes
        required_infeasibility_reduction = 1                      no
                                     tol = 1e-08                 yes
                   warm_start_bound_frac = 1e-20                 yes
                   warm_start_bound_push = 1e-20                 yes
                   warm_start_init_point = yes                   yes
              warm_start_mult_bound_push = 1e-20                 yes
                warm_start_mult_init_max = 1e+40                 yes
             warm_start_slack_bound_frac = 1e-20                 yes
             warm_start_slack_bound_push = 1e-20                 yes

******************************************************************************
This program contains Ipopt, a library for large-scale nonlinear optimization.
 Ipopt is released as open source code under the Eclipse Public License (EPL).
         For more information visit http://projects.coin-or.org/Ipopt
******************************************************************************

This is Ipopt version 3.12.10, running with linear solver ma97.

Number of nonzeros in equality constraint Jacobian...:   123442
Number of nonzeros in inequality constraint Jacobian.:      213
Number of nonzeros in Lagrangian Hessian.............:    49069

Total number of variables............................:    31591
                     variables with only lower bounds:    12912
                variables with lower and upper bounds:    15130
                     variables with only upper bounds:        0
Total number of equality constraints.................:    31483
Total number of inequality constraints...............:       25
        inequality constraints with only lower bounds:        4
   inequality constraints with lower and upper bounds:        0
        inequality constraints with only upper bounds:       21

iter    objective    inf_pr   inf_du lg(mu)  ||d||  lg(rg) alpha_du alpha_pr  ls
   0 -5.2219188e+00 4.06e-03 1.02e+00  -6.0 0.00e+00    -  0.00e+00 0.00e+00   0
   1 -5.2213917e+00 5.67e-01 7.90e+00  -6.0 3.66e+05    -  9.00e-05 3.16e-04h  3
   2 -5.2249874e+00 5.67e-01 3.06e+01  -6.0 1.36e+04    -  1.34e-01 1.02e-03h  1
   3 -5.2439357e+00 3.72e+01 1.30e+02  -6.0 2.24e+05    -  3.55e-03 6.53e-03f  1
   4 -5.2534800e+00 3.72e+01 2.65e+02  -6.0 1.19e+04    -  2.76e-03 1.19e-02h  1
   5 -5.3871058e+00 9.30e+01 4.79e+02  -6.0 1.02e+04    -  2.17e-01 1.71e-01h  1
   6 -5.4822739e+00 8.20e+01 8.98e+02  -6.0 3.81e+03    -  4.90e-02 1.64e-01h  1
   7 -5.4798590e+00 7.38e+01 3.75e+03  -6.0 5.28e+01  -4.0 2.57e-02 1.01e-01h  1
   8 -5.5007453e+00 9.79e-02 8.52e+03  -6.0 4.74e+01  -4.5 4.45e-02 1.00e+00h  1
   9 -5.4790373e+00 6.29e-02 1.30e+05  -6.0 4.70e+01  -5.0 3.40e-02 1.00e+00H  1
iter    objective    inf_pr   inf_du lg(mu)  ||d||  lg(rg) alpha_du alpha_pr  ls
  10 -5.5050369e+00 4.56e-02 5.95e+04  -6.0 6.87e+01  -5.4 4.55e-01 5.41e-01h  1
  11 -5.7109265e+00 8.49e+00 2.33e+04  -6.0 8.39e+01  -5.9 4.06e-01 6.10e-01f  1
  12 -5.7196449e+00 7.70e+00 2.13e+04  -6.0 3.55e+03    -  1.98e-01 8.29e-02h  1
  13 -5.7275022e+00 7.11e+00 1.97e+04  -6.0 2.04e+03    -  4.90e-02 7.55e-02h  1
  14 -5.7059881e+00 6.25e-01 1.06e+02  -6.0 8.98e+01  -6.4 2.07e-01 1.00e+00h  1
  15 -5.7103286e+00 2.41e-01 2.97e+01  -6.0 1.23e+02  -6.9 3.49e-01 6.53e-01h  1
  16 -5.7273642e+00 1.38e+00 1.09e+01  -6.0 2.13e+02  -7.3 6.15e-01 1.00e+00h  1
  17 -5.7277842e+00 1.36e+00 1.10e+01  -6.0 7.18e+02  -7.8 2.57e-01 1.87e-02h  1
  18 -5.7331572e+00 1.37e+00 5.77e+00  -6.0 2.15e+02  -7.4 1.00e+00 1.00e+00h  1
  19 -5.7353897e+00 1.38e+00 1.92e+03  -6.0 9.69e+02  -7.9 1.38e-01 5.70e-02h  1
iter    objective    inf_pr   inf_du lg(mu)  ||d||  lg(rg) alpha_du alpha_pr  ls
  20 -5.7457462e+00 1.45e+00 9.91e+01  -6.0 2.23e+02  -7.4 1.00e+00 1.00e+00h  1
  21 -5.7497018e+00 1.53e+00 8.40e+03  -6.0 7.75e+02  -7.9 8.92e-02 1.82e-01h  1
  22 -5.7544987e+00 2.32e+00 7.19e+03  -6.0 7.21e+03    -  5.71e-02 5.15e-02h  1
  23 -5.7595364e+00 2.04e+00 4.01e+04  -6.0 2.96e+03    -  4.53e-01 1.22e-01h  1
  24 -5.7727458e+00 5.12e+00 5.05e+04  -6.0 2.84e+03    -  5.73e-01 3.58e-01h  1
  25 -5.7752722e+00 5.20e+00 2.22e+05  -6.0 1.86e+03    -  1.00e+00 9.82e-02h  1
  26 -5.7934772e+00 4.55e+01 2.02e+04  -6.0 2.15e+03    -  1.40e-01 7.39e-01h  1
  27 -5.7954312e+00 4.15e+01 2.05e+05  -6.0 1.97e+03  -8.4 6.44e-03 1.02e-01h  1
  28 -5.7958694e+00 4.08e+01 1.89e+05  -6.0 1.69e+04    -  4.25e-03 1.54e-02h  1
  29 -5.8021409e+00 3.02e+01 1.58e+04  -6.0 1.14e+03    -  1.27e-01 2.60e-01h  1
iter    objective    inf_pr   inf_du lg(mu)  ||d||  lg(rg) alpha_du alpha_pr  ls
  30 -5.8155857e+00 1.44e+01 2.25e+05  -6.0 8.09e+02    -  3.97e-01 5.30e-01h  1
  31r-5.8155857e+00 1.44e+01 1.00e+03   1.0 0.00e+00    -  0.00e+00 2.62e-07R  2
  32r-5.8308127e+00 1.44e+01 9.99e+02   1.0 4.95e+04    -  1.61e-06 3.21e-07f  1
  33 -5.8306838e+00 1.43e+01 1.80e+03  -6.0 8.56e+00    -  4.10e-06 7.37e-03h  1
  34 -5.8302266e+00 1.40e+01 1.75e+03  -6.0 8.74e+00    -  7.51e-02 2.52e-02h  1
  35 -5.8276076e+00 1.19e+01 1.51e+03  -6.0 8.73e+00    -  2.91e-02 1.47e-01h  1
  36 -5.8197196e+00 5.80e+00 7.37e+02  -6.0 7.64e+00    -  3.79e-01 5.13e-01h  1
  37 -5.8184721e+00 4.87e+00 6.18e+02  -6.0 3.87e+00    -  7.91e-01 1.61e-01h  1
  38 -5.8125174e+00 3.49e-01 4.43e+01  -6.0 3.16e+00    -  8.39e-01 9.28e-01h  1
  39 -5.8127302e+00 6.70e-04 7.00e+00  -6.0 4.58e+00    -  9.46e-01 1.00e+00h  1
iter    objective    inf_pr   inf_du lg(mu)  ||d||  lg(rg) alpha_du alpha_pr  ls
  40 -5.8163211e+00 1.02e-01 4.13e+00  -6.0 5.63e+01    -  9.03e-01 1.00e+00h  1
  41 -5.8230593e+00 6.26e-01 4.82e+00  -6.0 1.67e+02    -  9.08e-01 8.26e-01h  1
  42 -5.8229947e+00 5.32e-01 7.21e+03  -6.0 8.58e+02    -  6.07e-01 2.17e-01H  1
  43 -5.8243931e+00 5.66e+00 3.67e+03  -6.0 1.35e+03    -  7.41e-01 4.40e-01h  1
  44 -5.8242824e+00 6.16e+00 3.55e+02  -6.0 6.89e+02    -  9.19e-01 9.03e-01h  1
  45 -5.8242434e+00 5.76e+00 2.87e+02  -6.0 1.23e+03    -  3.16e-03 1.93e-01h  3
  46 -5.8234271e+00 3.85e-01 3.13e+03  -6.0 1.47e+02    -  7.97e-01 1.00e+00h  1
  47 -5.8233328e+00 1.44e-03 1.56e+00  -6.0 1.01e+01    -  1.00e+00 1.00e+00h  1
  48 -5.8233181e+00 2.71e-05 2.45e-04  -6.0 1.38e+00    -  1.00e+00 1.00e+00h  1
  49 -5.8233183e+00 3.45e-07 2.02e-05  -6.0 9.18e-02    -  1.00e+00 1.00e+00h  1
iter    objective    inf_pr   inf_du lg(mu)  ||d||  lg(rg) alpha_du alpha_pr  ls
  50 -5.8233183e+00 2.85e-10 1.64e-08  -6.0 2.59e-03    -  1.00e+00 1.00e+00h  1
  51 -5.8234414e+00 2.91e+00 5.97e+01  -7.5 5.56e+02    -  5.70e-01 7.76e-01h  1
  52 -5.8234357e+00 1.29e+00 3.35e+01  -7.5 1.32e+02    -  5.19e-01 5.93e-01h  1
  53 -5.8234295e+00 8.38e-02 1.98e-01  -7.5 7.10e+01    -  1.00e+00 1.00e+00h  1
  54 -5.8234288e+00 9.06e-05 5.95e-05  -7.5 2.29e+00    -  1.00e+00 1.00e+00h  1
  55 -5.8234288e+00 9.95e-10 1.63e-08  -7.5 4.93e-03    -  1.00e+00 1.00e+00h  1
  56 -5.8234303e+00 4.33e-03 9.09e-01  -9.0 1.99e+01    -  9.24e-01 8.25e-01h  1
  57 -5.8234306e+00 1.99e-04 7.39e-04  -9.0 3.51e+00    -  1.00e+00 1.00e+00h  1
  58 -5.8234306e+00 2.85e-10 3.78e-09  -9.0 3.38e-03    -  1.00e+00 1.00e+00h  1

Number of Iterations....: 58

                                   (scaled)                 (unscaled)
Objective...............:  -4.5495551417038680e+00   -5.8234305813809506e+00
Dual infeasibility......:   3.7788060359949377e-09    4.8368717260735206e-09
Constraint violation....:   2.8461684495762613e-10    2.8461684495762613e-10
Complementarity.........:   1.1196417845040991e-09    1.4331414841652467e-09
Overall NLP error.......:   3.7788060359949377e-09    4.8368717260735206e-09


Number of objective function evaluations             = 71
Number of objective gradient evaluations             = 59
Number of equality constraint evaluations            = 71
Number of inequality constraint evaluations          = 71
Number of equality constraint Jacobian evaluations   = 60
Number of inequality constraint Jacobian evaluations = 60
Number of Lagrangian Hessian evaluations             = 58
Total CPU secs in IPOPT (w/o function evaluations)   =    118.427
Total CPU secs in NLP function evaluations           =      2.307

EXIT: Optimal Solution Found.
